23 23
19
3 3 3 17
3 4 9 19
3 5 3 12
3 6 0 7
3 7 0 0
3 8 9 0
3 9 12 0
3 10 0 13
3 11 9 8
3 12 3 0
3 14 12 9
3 20 6 0
4 3 19 10
4 4 19 19
4 6 19 13
4 10 19 0
4 11 15 12
4 12 15 0
6 3 3 20
% time elapsed: 19.81 s
% time elapsed: 19.81 s
%%%mzn-stat: initTime=0.000356
%%%mzn-stat: solveTime=19.7157
%%%mzn-stat: solutions=56
%%%mzn-stat: variables=39
%%%mzn-stat: propagators=24
%%%mzn-stat: propagations=13436272
%%%mzn-stat: nodes=3151702
%%%mzn-stat: failures=1568280
%%%mzn-stat: restarts=1387
%%%mzn-stat: peakDepth=58
%%%mzn-stat-end
